c FILE: DSJC250.1
c
c SOURCE: David Johnson (dsj@research.att.com)
c
c DESCRIPTION: Random graph used in the paper
c              "Optimization by Simulated Annealing: An
c               Experimental Evaluation; Part II, Graph
c               Coloring and Number Partitioning" by
c              David S. Johnson, Cecilia R. Aragon, 
c              Lyle A. McGeoch and Catherine Schevon
c              Operations Research, 39, 378-406 (1991)
c
p edge 250 6436
e 5 2
e 6 3
e 6 4
e 7 3
e 8 6
e 10 8
e 13 3
e 14 3
e 15 8
e 16 7
e 17 2
e 18 10
e 19 4
e 19 5
e 19 14
e 19 17
e 20 3
e 20 5
e 21 1
e 21 9
e 22 17
e 24 5
e 24 12
e 24 19
e 24 23
e 26 15
e 27 12
e 27 19
e 27 20
e 28 6
e 28 11
e 28 15
e 28 22
e 29 12
e 29 13
e 29 16
e 29 18
e 29 23
e 31 16
e 32 13
e 32 21
e 32 24
e 32 31
e 33 9
e 33 15
e 33 17
e 33 27
e 33 31
e 33 32
e 34 1
e 34 3
e 34 6
e 34 11
e 34 32
e 34 33
e 35 5
e 35 13
e 35 28
e 35 31
e 36 13
e 36 19
e 36 23
e 36 27
e 36 35
e 37 14
e 38 5
e 38 14
e 38 18
e 39 6
e 39 8
e 39 10
e 39 14
e 39 20
e 39 38
e 40 4
e 40 14
e 40 17
e 40 23
e 40 26
e 40 29
e 40 30
e 40 32
e 41 2
e 41 4
e 41 18
e 41 22
e 41 25
e 41 26
e 41 39
e 42 21
e 42 27
e 42 28
e 43 20
e 43 33
e 43 39
e 44 2
e 44 10
e 44 25
e 44 43
e 45 1
e 45 3
e 45 13
e 45 19
e 45 22
e 46 11
e 46 13
e 46 15
e 46 17
e 46 28
e 46 31
e 47 40
e 48 1
e 48 3
e 48 26
e 48 27
e 48 34
e 48 35
e 48 37
e 49 7
e 49 8
e 49 22
e 49 32
e 49 48
e 50 5
e 50 13
e 50 19
e 50 27
e 50 32
e 50 33
e 51 2
e 51 9
e 51 28
e 51 30
e 52 3
e 52 17
e 52 25
e 52 28
e 52 49
e 53 6
e 53 15
e 53 28
e 53 30
e 53 34
e 53 44
e 53 47
e 54 24
e 54 37
e 54 42
e 54 44
e 55 10
e 55 18
e 55 29
e 55 40
e 56 15
e 56 19
e 56 21
e 56 26
e 56 32
e 56 35
e 56 37
e 56 42
e 56 44
e 56 47
e 56 55
e 57 4
e 57 13
e 57 14
e 57 23
e 57 25
e 57 39
e 57 44
e 57 45
e 57 46
e 57 47
e 58 5
e 58 15
e 58 21
e 58 23
e 58 29
e 58 31
e 58 34
e 58 44
e 59 3
e 59 7
e 59 30
e 59 31
e 59 32
e 59 33
e 59 45
e 59 48
e 60 9
e 60 35
e 60 41
e 61 2
e 61 12
e 61 21
e 61 28
e 61 35
e 61 37
e 61 46
e 61 54
e 61 56
e 61 58
e 62 6
e 62 8
e 62 12
e 62 20
e 62 35
e 62 60
e 63 6
e 63 16
e 63 18
e 63 31
e 63 32
e 63 46
e 63 57
e 63 59
e 63 61
e 64 18
e 64 36
e 64 51
e 65 1
e 65 10
e 65 11
e 65 22
e 65 33
e 65 34
e 65 37
e 65 64
e 66 3
e 66 5
e 66 9
e 66 24
e 66 42
e 66 53
e 66 54
e 66 56
e 66 58
e 67 7
e 67 9
e 67 25
e 67 29
e 67 42
e 68 8
e 68 22
e 68 30
e 68 39
e 69 3
e 69 4
e 69 5
e 69 7
e 69 17
e 69 19
e 69 29
e 69 32
e 69 33
e 69 34
e 69 54
e 69 64
e 70 1
e 70 10
e 70 43
e 70 56
e 70 68
e 71 4
e 71 13
e 71 15
e 71 16
e 71 17
e 71 22
e 71 24
e 71 27
e 71 40
e 71 41
e 71 52
e 71 60
e 71 64
e 72 12
e 72 29
e 72 35
e 72 36
e 72 44
e 72 63
e 73 17
e 73 28
e 73 39
e 73 41
e 74 1
e 74 24
e 74 28
e 74 35
e 74 48
e 74 56
e 74 59
e 75 23
e 75 37
e 75 41
e 75 56
e 75 71
e 76 10
e 76 13
e 76 30
e 76 39
e 76 40
e 76 44
e 76 48
e 76 59
e 76 64
e 76 65
e 76 71
e 76 75
e 77 32
e 77 50
e 78 2
e 78 10
e 78 39
e 78 56
e 79 1
e 79 27
e 79 35
e 79 56
e 79 57
e 79 58
e 79 61
e 79 69
e 79 70
e 80 3
e 80 18
e 80 29
e 80 58
e 80 61
e 80 73
e 81 2
e 81 8
e 81 19
e 81 33
e 81 46
e 81 49
e 81 51
e 81 56
e 81 67
e 82 14
e 82 37
e 82 73
e 83 13
e 83 50
e 83 64
e 83 66
e 83 80
e 84 7
e 84 12
e 84 23
e 84 25
e 84 56
e 84 60
e 85 1
e 85 5
e 85 11
e 85 18
e 85 22
e 85 38
e 85 40
e 85 43
e 85 48
e 85 55
e 85 60
e 85 61
e 85 80
e 86 23
e 86 48
e 86 49
e 86 65
e 86 75
e 86 81
e 87 2
e 87 9
e 87 15
e 87 17
e 87 30
e 87 36
e 87 38
e 87 42
e 87 43
e 87 59
e 87 60
e 87 62
e 87 63
e 87 68
e 87 84
e 88 1
e 88 11
e 88 13
e 88 25
e 88 32
e 88 36
e 88 37
e 88 47
e 88 53
e 88 67
e 88 75
e 88 77
e 89 11
e 89 13
e 89 39
e 89 77
e 89 79
e 89 81
e 90 1
e 90 4
e 90 8
e 90 21
e 90 36
e 90 39
e 90 51
e 90 53
e 90 72
e 90 83
e 91 10
e 91 15
e 91 16
e 91 19
e 91 23
e 91 44
e 91 45
e 91 54
e 91 63
e 91 74
e 91 86
e 91 88
e 91 90
e 92 18
e 92 35
e 92 42
e 92 57
e 92 61
e 92 64
e 92 77
e 92 88
e 92 91
e 93 1
e 93 5
e 93 6
e 93 13
e 93 25
e 93 36
e 93 39
e 93 44
e 93 61
e 93 73
e 94 3
e 94 5
e 94 6
e 94 10
e 94 25
e 94 29
e 94 34
e 94 39
e 94 44
e 94 52
e 94 59
e 94 71
e 94 77
e 95 5
e 95 10
e 95 15
e 95 28
e 95 32
e 95 48
e 95 57
e 95 65
e 95 72
e 95 73
e 95 94
e 96 17
e 96 27
e 96 35
e 96 64
e 96 72
e 96 73
e 96 81
e 96 92
e 97 1
e 97 6
e 97 19
e 97 26
e 97 30
e 97 42
e 97 46
e 97 65
e 97 69
e 97 78
e 97 82
e 97 91
e 97 92
e 98 2
e 98 10
e 98 14
e 98 17
e 98 19
e 98 37
e 98 42
e 98 55
e 98 62
e 98 65
e 98 66
e 98 86
e 98 90
e 98 96
e 99 7
e 99 16
e 99 19
e 99 35
e 99 39
e 99 43
e 99 86
e 100 6
e 100 21
e 100 25
e 100 40
e 100 41
e 100 45
e 100 55
e 100 57
e 100 62
e 100 65
e 100 72
e 101 8
e 101 13
e 101 15
e 101 21
e 101 23
e 101 24
e 101 29
e 101 38
e 101 49
e 101 50
e 101 61
e 101 65
e 101 79
e 102 12
e 102 16
e 102 26
e 102 33
e 102 36
e 102 44
e 102 54
e 102 55
e 102 88
e 102 95
e 103 1
e 103 5
e 103 13
e 103 14
e 103 19
e 103 23
e 103 30
e 103 60
e 103 62
e 103 77
e 103 90
e 103 94
e 103 97
e 103 98
e 103 101
e 104 12
e 104 25
e 104 26
e 104 36
e 104 40
e 104 44
e 104 45
e 104 56
e 104 57
e 104 71
e 104 75
e 104 77
e 104 81
e 105 25
e 105 31
e 105 37
e 105 41
e 105 49
e 105 55
e 105 92
e 105 96
e 105 100
e 106 7
e 106 56
e 106 62
e 106 84
e 106 90
e 106 94
e 107 7
e 107 8
e 107 11
e 107 26
e 107 36
e 107 55
e 107 61
e 107 62
e 107 65
e 107 82
e 107 89
e 107 92
e 108 10
e 108 24
e 108 57
e 108 69
e 108 80
e 108 82
e 108 86
e 108 88
e 109 4
e 109 6
e 109 9
e 109 22
e 109 63
e 109 67
e 109 69
e 109 70
e 109 75
e 109 76
e 109 93
e 109 100
e 109 102
e 110 1
e 110 9
e 110 11
e 110 27
e 110 44
e 110 54
e 110 58
e 110 77
e 110 79
e 110 96
e 110 106
e 110 107
e 111 6
e 111 9
e 111 14
e 111 19
e 111 21
e 111 31
e 111 42
e 111 48
e 111 54
e 111 57
e 111 80
e 111 104
e 112 1
e 112 3
e 112 5
e 112 12
e 112 25
e 112 47
e 112 57
e 112 73
e 112 87
e 112 106
e 113 5
e 113 26
e 113 46
e 113 51
e 113 54
e 113 57
e 113 60
e 113 64
e 113 73
e 113 74
e 113 99
e 113 105
e 114 12
e 114 14
e 114 17
e 114 20
e 114 36
e 114 38
e 114 46
e 114 49
e 114 58
e 114 67
e 114 68
e 114 75
e 114 81
e 114 82
e 114 112
e 115 11
e 115 13
e 115 14
e 115 23
e 115 29
e 115 39
e 115 44
e 115 63
e 115 65
e 115 87
e 115 93
e 115 94
e 115 95
e 115 101
e 115 105
e 115 107
e 115 110
e 116 5
e 116 15
e 116 29
e 116 62
e 116 74
e 116 84
e 117 1
e 117 3
e 117 4
e 117 6
e 117 11
e 117 12
e 117 16
e 117 31
e 117 57
e 117 70
e 117 72
e 117 73
e 117 105
e 118 3
e 118 6
e 118 30
e 118 47
e 118 72
e 118 84
e 118 93
e 118 98
e 118 101
e 118 110
e 119 7
e 119 13
e 119 20
e 119 24
e 119 30
e 119 32
e 119 34
e 119 57
e 119 62
e 119 63
e 119 64
e 119 73
e 119 87
e 119 93
e 119 95
e 119 97
e 119 102
e 119 118
e 120 13
e 120 21
e 120 31
e 120 64
e 120 70
e 120 73
e 120 85
e 120 89
e 120 93
e 120 99
e 120 111
e 120 115
e 121 8
e 121 17
e 121 22
e 121 23
e 121 28
e 121 34
e 121 37
e 121 42
e 121 59
e 121 87
e 121 101
e 121 104
e 122 16
e 122 19
e 122 22
e 122 24
e 122 41
e 122 69
e 122 70
e 122 104
e 122 107
e 122 121
e 123 1
e 123 7
e 123 32
e 123 39
e 123 54
e 123 56
e 123 62
e 123 64
e 123 75
e 123 86
e 123 117
e 123 119
e 123 120
e 123 121
e 124 9
e 124 12
e 124 20
e 124 26
e 124 33
e 124 38
e 124 49
e 124 54
e 124 62
e 124 72
e 124 77
e 124 86
e 124 98
e 124 102
e 125 19
e 125 28
e 125 32
e 125 51
e 125 52
e 125 76
e 125 79
e 125 87
e 125 89
e 125 95
e 125 104
e 125 106
e 125 110
e 125 118
e 126 16
e 126 22
e 126 28
e 126 43
e 126 54
e 126 65
e 126 76
e 126 77
e 126 82
e 126 94
e 126 97
e 126 103
e 126 108
e 126 111
e 126 124
e 126 125
e 127 22
e 127 25
e 127 27
e 127 37
e 127 49
e 127 58
e 127 60
e 127 61
e 127 73
e 127 108
e 127 118
e 128 2
e 128 3
e 128 18
e 128 20
e 128 24
e 128 35
e 128 46
e 128 50
e 128 59
e 128 60
e 128 61
e 128 65
e 128 87
e 128 89
e 128 116
e 128 117
e 129 14
e 129 15
e 129 20
e 129 22
e 129 28
e 129 35
e 129 53
e 129 55
e 129 58
e 129 69
e 129 75
e 129 88
e 129 93
e 129 104
e 129 106
e 129 114
e 129 118
e 130 4
e 130 5
e 130 19
e 130 30
e 130 35
e 130 38
e 130 39
e 130 43
e 130 48
e 130 56
e 130 84
e 130 87
e 130 89
e 130 119
e 130 123
e 130 128
e 131 1
e 131 19
e 131 29
e 131 36
e 131 58
e 131 69
e 131 72
e 131 74
e 131 81
e 131 85
e 131 97
e 132 1
e 132 4
e 132 16
e 132 20
e 132 22
e 132 32
e 132 48
e 132 55
e 132 62
e 132 72
e 132 111
e 132 112
e 132 113
e 132 116
e 132 119
e 132 126
e 132 129
e 133 1
e 133 13
e 133 14
e 133 28
e 133 30
e 133 37
e 133 38
e 133 45
e 133 48
e 133 50
e 133 54
e 133 57
e 133 61
e 133 89
e 133 92
e 134 1
e 134 14
e 134 21
e 134 24
e 134 37
e 134 51
e 134 79
e 134 88
e 134 92
e 134 95
e 134 108
e 134 110
e 134 112
e 134 117
e 134 123
e 135 5
e 135 13
e 135 20
e 135 35
e 135 49
e 135 51
e 135 65
e 135 71
e 135 80
e 135 81
e 135 82
e 135 84
e 135 85
e 135 86
e 135 93
e 135 94
e 135 95
e 136 24
e 136 50
e 136 62
e 136 69
e 136 95
e 136 106
e 136 113
e 136 115
e 136 117
e 136 131
e 137 28
e 137 53
e 137 57
e 137 68
e 137 69
e 137 70
e 137 73
e 137 90
e 137 97
e 137 125
e 138 5
e 138 15
e 138 30
e 138 59
e 138 63
e 138 71
e 138 77
e 138 93
e 138 106
e 138 118
e 139 8
e 139 17
e 139 23
e 139 29
e 139 39
e 139 52
e 139 68
e 139 70
e 139 82
e 139 91
e 139 93
e 139 101
e 139 110
e 139 137
e 140 5
e 140 16
e 140 19
e 140 36
e 140 37
e 140 83
e 140 84
e 140 89
e 140 123
e 141 4
e 141 15
e 141 19
e 141 20
e 141 22
e 141 36
e 141 47
e 141 53
e 141 63
e 141 100
e 141 121
e 141 128
e 141 140
e 142 30
e 142 57
e 142 67
e 142 75
e 142 102
e 142 130
e 143 10
e 143 15
e 143 19
e 143 31
e 143 32
e 143 33
e 143 50
e 143 63
e 143 72
e 143 86
e 143 100
e 143 112
e 143 117
e 143 118
e 143 123
e 143 137
e 144 11
e 144 13
e 144 22
e 144 23
e 144 46
e 144 53
e 144 55
e 144 56
e 144 61
e 144 78
e 144 87
e 144 115
e 144 120
e 144 124
e 144 135
e 144 137
e 144 139
e 144 141
e 145 4
e 145 6
e 145 15
e 145 27
e 145 28
e 145 43
e 145 65
e 145 71
e 145 75
e 145 90
e 145 115
e 146 9
e 146 16
e 146 18
e 146 19
e 146 48
e 146 58
e 146 62
e 146 64
e 146 65
e 146 72
e 146 84
e 146 89
e 146 96
e 146 103
e 146 106
e 146 107
e 146 134
e 146 136
e 147 5
e 147 11
e 147 36
e 147 43
e 147 55
e 147 70
e 147 73
e 147 91
e 147 110
e 147 117
e 147 123
e 147 129
e 147 134
e 148 8
e 148 12
e 148 18
e 148 29
e 148 30
e 148 31
e 148 32
e 148 60
e 148 71
e 148 85
e 148 94
e 148 98
e 148 101
e 148 105
e 148 107
e 148 126
e 148 134
e 149 16
e 149 33
e 149 38
e 149 47
e 149 63
e 149 67
e 149 71
e 149 74
e 149 75
e 149 92
e 149 94
e 149 98
e 149 99
e 149 108
e 149 113
e 149 118
e 149 123
e 149 131
e 149 133
e 149 139
e 149 142
e 150 8
e 150 16
e 150 52
e 150 53
e 150 62
e 150 115
e 150 116
e 150 129
e 150 132
e 150 145
e 151 14
e 151 56
e 151 63
e 151 76
e 151 78
e 151 81
e 151 84
e 151 89
e 151 90
e 151 93
e 151 109
e 151 112
e 151 115
e 151 124
e 151 137
e 151 144
e 151 147
e 152 27
e 152 35
e 152 37
e 152 41
e 152 46
e 152 53
e 152 57
e 152 65
e 152 72
e 152 85
e 152 90
e 152 96
e 152 105
e 152 107
e 152 121
e 152 124
e 152 135
e 152 136
e 152 137
e 152 144
e 152 147
e 152 151
e 153 1
e 153 2
e 153 14
e 153 15
